(set-option :produce-models true)
(set-logic QF_LRA)
(set-info :notes | Strip-packing problem.|)
(declare-fun x0 () Real)
(declare-fun y0 () Real)
(declare-fun x1 () Real)
(declare-fun y1 () Real)
(declare-fun x2 () Real)
(declare-fun y2 () Real)
(declare-fun x3 () Real)
(declare-fun y3 () Real)
(declare-fun x4 () Real)
(declare-fun y4 () Real)
(declare-fun x5 () Real)
(declare-fun y5 () Real)
(declare-fun x6 () Real)
(declare-fun y6 () Real)
(declare-fun x7 () Real)
(declare-fun y7 () Real)
(declare-fun x8 () Real)
(declare-fun y8 () Real)
(declare-fun z () Real)
(declare-fun c () Real)
(assert (and (= c z) (and (>= x0 0) 
(and (>= y0 0) 
(and (>= x1 0) 
(and (>= y1 0) 
(and (>= x2 0) 
(and (>= y2 0) 
(and (>= x3 0) 
(and (>= y3 0) 
(and (>= x4 0) 
(and (>= y4 0) 
(and (>= x5 0) 
(and (>= y5 0) 
(and (>= x6 0) 
(and (>= y6 0) 
(and (>= x7 0) 
(and (>= y7 0) 
(and (>= x8 0) 
(and (>= y8 0) 
(and (>= z 0) 
(and (>= c 0) 
(and (<= (+ x0 0.9795969543) z) 
(and (<= 0.9869594221 y0) 
(and (<= y0 1.5) 
(and (<= x0 (- 3.46425542 0.9795969543)) 
(and (>= x0 0) 
(and (<= (+ x1 0.3284484169) z) 
(and (<= 0.9548902779 y1) 
(and (<= y1 1.5) 
(and (<= x1 (- 3.46425542 0.3284484169)) 
(and (>= x1 0) 
(and (<= (+ x2 0.4531984465) z) 
(and (<= 0.8758810995 y2) 
(and (<= y2 1.5) 
(and (<= x2 (- 3.46425542 0.4531984465)) 
(and (>= x2 0) 
(and (<= (+ x3 0.0479701064) z) 
(and (<= 0.5714406699 y3) 
(and (<= y3 1.5) 
(and (<= x3 (- 3.46425542 0.0479701064)) 
(and (>= x3 0) 
(and (<= (+ x4 0.7199063875) z) 
(and (<= 0.5692977842 y4) 
(and (<= y4 1.5) 
(and (<= x4 (- 3.46425542 0.7199063875)) 
(and (>= x4 0) 
(and (<= (+ x5 0.9831052148) z) 
(and (<= 0.5018047812 y5) 
(and (<= y5 1.5) 
(and (<= x5 (- 3.46425542 0.9831052148)) 
(and (>= x5 0) 
(and (<= (+ x6 0.5455068845) z) 
(and (<= 0.2023165359 y6) 
(and (<= y6 1.5) 
(and (<= x6 (- 3.46425542 0.5455068845)) 
(and (>= x6 0) 
(and (<= (+ x7 0.5639929521) z) 
(and (<= 0.0400783202 y7) 
(and (<= y7 1.5) 
(and (<= x7 (- 3.46425542 0.5639929521)) 
(and (>= x7 0) 
(and (<= (+ x8 0.165974302) z) 
(and (<= 0.0399736498 y8) 
(and (<= y8 1.5) 
(and (<= x8 (- 3.46425542 0.165974302)) 
(and (>= x8 0) 
(and (<= c 3.46425542) 
(and (or (<= (+ x0 0.9795969543) x1) (or (<= (+ x1 0.3284484169) x0) (or (>= (- y0 0.9869594221) y1) (or (>= (- y1 0.9548902779) y0))))) 
(and (or (<= (+ x0 0.9795969543) x2) (or (<= (+ x2 0.4531984465) x0) (or (>= (- y0 0.9869594221) y2) (or (>= (- y2 0.8758810995) y0))))) 
(and (or (<= (+ x0 0.9795969543) x3) (or (<= (+ x3 0.0479701064) x0) (or (>= (- y0 0.9869594221) y3) (or (>= (- y3 0.5714406699) y0))))) 
(and (or (<= (+ x0 0.9795969543) x4) (or (<= (+ x4 0.7199063875) x0) (or (>= (- y0 0.9869594221) y4) (or (>= (- y4 0.5692977842) y0))))) 
(and (or (<= (+ x0 0.9795969543) x5) (or (<= (+ x5 0.9831052148) x0) (or (>= (- y0 0.9869594221) y5) (or (>= (- y5 0.5018047812) y0))))) 
(and (or (<= (+ x0 0.9795969543) x6) (or (<= (+ x6 0.5455068845) x0) (or (>= (- y0 0.9869594221) y6) (or (>= (- y6 0.2023165359) y0))))) 
(and (or (<= (+ x0 0.9795969543) x7) (or (<= (+ x7 0.5639929521) x0) (or (>= (- y0 0.9869594221) y7) (or (>= (- y7 0.0400783202) y0))))) 
(and (or (<= (+ x0 0.9795969543) x8) (or (<= (+ x8 0.165974302) x0) (or (>= (- y0 0.9869594221) y8) (or (>= (- y8 0.0399736498) y0))))) 
(and (or (<= (+ x1 0.3284484169) x2) (or (<= (+ x2 0.4531984465) x1) (or (>= (- y1 0.9548902779) y2) (or (>= (- y2 0.8758810995) y1))))) 
(and (or (<= (+ x1 0.3284484169) x3) (or (<= (+ x3 0.0479701064) x1) (or (>= (- y1 0.9548902779) y3) (or (>= (- y3 0.5714406699) y1))))) 
(and (or (<= (+ x1 0.3284484169) x4) (or (<= (+ x4 0.7199063875) x1) (or (>= (- y1 0.9548902779) y4) (or (>= (- y4 0.5692977842) y1))))) 
(and (or (<= (+ x1 0.3284484169) x5) (or (<= (+ x5 0.9831052148) x1) (or (>= (- y1 0.9548902779) y5) (or (>= (- y5 0.5018047812) y1))))) 
(and (or (<= (+ x1 0.3284484169) x6) (or (<= (+ x6 0.5455068845) x1) (or (>= (- y1 0.9548902779) y6) (or (>= (- y6 0.2023165359) y1))))) 
(and (or (<= (+ x1 0.3284484169) x7) (or (<= (+ x7 0.5639929521) x1) (or (>= (- y1 0.9548902779) y7) (or (>= (- y7 0.0400783202) y1))))) 
(and (or (<= (+ x1 0.3284484169) x8) (or (<= (+ x8 0.165974302) x1) (or (>= (- y1 0.9548902779) y8) (or (>= (- y8 0.0399736498) y1))))) 
(and (or (<= (+ x2 0.4531984465) x3) (or (<= (+ x3 0.0479701064) x2) (or (>= (- y2 0.8758810995) y3) (or (>= (- y3 0.5714406699) y2))))) 
(and (or (<= (+ x2 0.4531984465) x4) (or (<= (+ x4 0.7199063875) x2) (or (>= (- y2 0.8758810995) y4) (or (>= (- y4 0.5692977842) y2))))) 
(and (or (<= (+ x2 0.4531984465) x5) (or (<= (+ x5 0.9831052148) x2) (or (>= (- y2 0.8758810995) y5) (or (>= (- y5 0.5018047812) y2))))) 
(and (or (<= (+ x2 0.4531984465) x6) (or (<= (+ x6 0.5455068845) x2) (or (>= (- y2 0.8758810995) y6) (or (>= (- y6 0.2023165359) y2))))) 
(and (or (<= (+ x2 0.4531984465) x7) (or (<= (+ x7 0.5639929521) x2) (or (>= (- y2 0.8758810995) y7) (or (>= (- y7 0.0400783202) y2))))) 
(and (or (<= (+ x2 0.4531984465) x8) (or (<= (+ x8 0.165974302) x2) (or (>= (- y2 0.8758810995) y8) (or (>= (- y8 0.0399736498) y2))))) 
(and (or (<= (+ x3 0.0479701064) x4) (or (<= (+ x4 0.7199063875) x3) (or (>= (- y3 0.5714406699) y4) (or (>= (- y4 0.5692977842) y3))))) 
(and (or (<= (+ x3 0.0479701064) x5) (or (<= (+ x5 0.9831052148) x3) (or (>= (- y3 0.5714406699) y5) (or (>= (- y5 0.5018047812) y3))))) 
(and (or (<= (+ x3 0.0479701064) x6) (or (<= (+ x6 0.5455068845) x3) (or (>= (- y3 0.5714406699) y6) (or (>= (- y6 0.2023165359) y3))))) 
(and (or (<= (+ x3 0.0479701064) x7) (or (<= (+ x7 0.5639929521) x3) (or (>= (- y3 0.5714406699) y7) (or (>= (- y7 0.0400783202) y3))))) 
(and (or (<= (+ x3 0.0479701064) x8) (or (<= (+ x8 0.165974302) x3) (or (>= (- y3 0.5714406699) y8) (or (>= (- y8 0.0399736498) y3))))) 
(and (or (<= (+ x4 0.7199063875) x5) (or (<= (+ x5 0.9831052148) x4) (or (>= (- y4 0.5692977842) y5) (or (>= (- y5 0.5018047812) y4))))) 
(and (or (<= (+ x4 0.7199063875) x6) (or (<= (+ x6 0.5455068845) x4) (or (>= (- y4 0.5692977842) y6) (or (>= (- y6 0.2023165359) y4))))) 
(and (or (<= (+ x4 0.7199063875) x7) (or (<= (+ x7 0.5639929521) x4) (or (>= (- y4 0.5692977842) y7) (or (>= (- y7 0.0400783202) y4))))) 
(and (or (<= (+ x4 0.7199063875) x8) (or (<= (+ x8 0.165974302) x4) (or (>= (- y4 0.5692977842) y8) (or (>= (- y8 0.0399736498) y4))))) 
(and (or (<= (+ x5 0.9831052148) x6) (or (<= (+ x6 0.5455068845) x5) (or (>= (- y5 0.5018047812) y6) (or (>= (- y6 0.2023165359) y5))))) 
(and (or (<= (+ x5 0.9831052148) x7) (or (<= (+ x7 0.5639929521) x5) (or (>= (- y5 0.5018047812) y7) (or (>= (- y7 0.0400783202) y5))))) 
(and (or (<= (+ x5 0.9831052148) x8) (or (<= (+ x8 0.165974302) x5) (or (>= (- y5 0.5018047812) y8) (or (>= (- y8 0.0399736498) y5))))) 
(and (or (<= (+ x6 0.5455068845) x7) (or (<= (+ x7 0.5639929521) x6) (or (>= (- y6 0.2023165359) y7) (or (>= (- y7 0.0400783202) y6))))) 
(and (or (<= (+ x6 0.5455068845) x8) (or (<= (+ x8 0.165974302) x6) (or (>= (- y6 0.2023165359) y8) (or (>= (- y8 0.0399736498) y6))))) 
(and (or (<= (+ x7 0.5639929521) x8) (or (<= (+ x8 0.165974302) x7) (or (>= (- y7 0.0400783202) y8) (or (>= (- y8 0.0399736498) y7))))) ))))))))))))))))))))))))))))))))))))))))))))))))))))))))))))))))))))))))))))))))))))))))))))))))))))))))
(minimize c)
(check-sat)
(get-objectives)
(exit)
